p cnf 17 46
3 -8 -9 0
-2 12 -14 0
5 10 -12 0
6 -10 16 0
-1 5 8 0
-11 -13 -14 0
-1 -2 6 0
-2 4 -11 0
-9 12 -13 0
11 -15 -17 0
1 -8 -11 0
3 -11 -15 0
1 3 -11 0
-2 7 -11 0
2 7 -8 0
-2 3 17 0
-12 14 -16 0
-4 -6 10 0
5 -11 -16 0
-1 -11 12 0
-6 -9 -13 0
5 10 -13 0
6 11 13 0
2 -12 -16 0
-1 -2 14 0
1 -2 -11 0
-4 8 17 0
-4 -7 13 0
1 -2 -15 0
7 -9 -16 0
-5 8 -12 0
-2 -6 -15 0
2 -3 10 0
-1 -8 -12 0
-12 -14 16 0
-1 -3 5 0
9 -10 -11 0
2 -7 -13 0
3 -5 14 0
3 -5 -8 0
9 14 -16 0
1 6 15 0
3 -6 -14 0
6 -8 16 0
2 9 -14 0
-8 13 -16 0
